(declare-const in20 Int)
(declare-const in22 Int)
(declare-const in21 Int)
(declare-const in24 Int)
(declare-const in23 Int)
(declare-const in0 Int)
(declare-const in2 Int)
(declare-const in1 Int)
(declare-const in4 Int)
(declare-const in3 Int)
(declare-const in6 Int)
(declare-const in5 Int)
(declare-const in8 Int)
(declare-const in7 Int)
(declare-const in11 Int)
(declare-const in10 Int)
(declare-const in9 Int)
(declare-const in13 Int)
(declare-const in12 Int)
(declare-const in15 Int)
(declare-const in14 Int)
(declare-const in17 Int)
(declare-const in16 Int)
(declare-const in19 Int)
(declare-const in18 Int)

(assert (and (and (and (and (and (and (and (and (and (and (and (and (and (and (and (and (and (and (and (and (and (and (and (and (and (and (and (and (and (and (and (and (and (and (and (and (and (and (and (and (and (and (and (and (and (and (and (and (and (and (and (and (and (and (and (and (and (and (and (and (and (and (and (and (and (and (and (and (and (and (and (and (and (and (and (and (and (and (and (and (and (and (and (and (and (and (and (and (and (and (and (and (and (and (and (and (and (and (and (and (and (and (and (and (and (and (and (and (and (and (and (and (and (and (and (and (and (and (and (and (and (and (and (and (and (and (and (and (and (and (and (and (and (and (and (and (and (and (and (and (and (and (and (and (and (and (and (and (and (and (and (and (and (and (and (and (and (and (and (and (and (and (and (and (and (and (and (and (and (and (and (and (and (and (and (and (and (and (and (and (and (and (and (and (and (and (and (and (and (and (and (and (and (and (and (and (and (and (and (and (and (and (and (and (and (and (and (and (and (and (and (and (and (and (and (and (and (and (and (and (and (and (and (and (and (and (and (and (and (and (and (and (and (and (and (and (and (and (and (and (and (and (and (and (and (and (and (and (and (and (and (and (and (and (and (and (and (and (and (and (and (and (and (and (and (and (and (and (and (and (and (and (and (and (and (and (and (and (and (and (and (and (and (and (and (and (and (and (and (and (and (and (and (and (and (and (and (and (and (not ( = in0 in1)) (not ( = in0 in2))) (not ( = in0 in3))) (not ( = in0 in4))) (not ( = in0 in5))) (not ( = in0 in6))) (not ( = in0 in7))) (not ( = in0 in8))) (not ( = in0 in9))) (not ( = in0 in10))) (not ( = in0 in11))) (not ( = in0 in12))) (not ( = in0 in13))) (not ( = in0 in14))) (not ( = in0 in15))) (not ( = in0 in16))) (not ( = in0 in17))) (not ( = in0 in18))) (not ( = in0 in19))) (not ( = in0 in20))) (not ( = in0 in21))) (not ( = in0 in22))) (not ( = in0 in23))) (not ( = in0 in24))) (not ( = in1 in2))) (not ( = in1 in3))) (not ( = in1 in4))) (not ( = in1 in5))) (not ( = in1 in6))) (not ( = in1 in7))) (not ( = in1 in8))) (not ( = in1 in9))) (not ( = in1 in10))) (not ( = in1 in11))) (not ( = in1 in12))) (not ( = in1 in13))) (not ( = in1 in14))) (not ( = in1 in15))) (not ( = in1 in16))) (not ( = in1 in17))) (not ( = in1 in18))) (not ( = in1 in19))) (not ( = in1 in20))) (not ( = in1 in21))) (not ( = in1 in22))) (not ( = in1 in23))) (not ( = in1 in24))) (not ( = in2 in3))) (not ( = in2 in4))) (not ( = in2 in5))) (not ( = in2 in6))) (not ( = in2 in7))) (not ( = in2 in8))) (not ( = in2 in9))) (not ( = in2 in10))) (not ( = in2 in11))) (not ( = in2 in12))) (not ( = in2 in13))) (not ( = in2 in14))) (not ( = in2 in15))) (not ( = in2 in16))) (not ( = in2 in17))) (not ( = in2 in18))) (not ( = in2 in19))) (not ( = in2 in20))) (not ( = in2 in21))) (not ( = in2 in22))) (not ( = in2 in23))) (not ( = in2 in24))) (not ( = in3 in4))) (not ( = in3 in5))) (not ( = in3 in6))) (not ( = in3 in7))) (not ( = in3 in8))) (not ( = in3 in9))) (not ( = in3 in10))) (not ( = in3 in11))) (not ( = in3 in12))) (not ( = in3 in13))) (not ( = in3 in14))) (not ( = in3 in15))) (not ( = in3 in16))) (not ( = in3 in17))) (not ( = in3 in18))) (not ( = in3 in19))) (not ( = in3 in20))) (not ( = in3 in21))) (not ( = in3 in22))) (not ( = in3 in23))) (not ( = in3 in24))) (not ( = in4 in5))) (not ( = in4 in6))) (not ( = in4 in7))) (not ( = in4 in8))) (not ( = in4 in9))) (not ( = in4 in10))) (not ( = in4 in11))) (not ( = in4 in12))) (not ( = in4 in13))) (not ( = in4 in14))) (not ( = in4 in15))) (not ( = in4 in16))) (not ( = in4 in17))) (not ( = in4 in18))) (not ( = in4 in19))) (not ( = in4 in20))) (not ( = in4 in21))) (not ( = in4 in22))) (not ( = in4 in23))) (not ( = in4 in24))) (not ( = in5 in6))) (not ( = in5 in7))) (not ( = in5 in8))) (not ( = in5 in9))) (not ( = in5 in10))) (not ( = in5 in11))) (not ( = in5 in12))) (not ( = in5 in13))) (not ( = in5 in14))) (not ( = in5 in15))) (not ( = in5 in16))) (not ( = in5 in17))) (not ( = in5 in18))) (not ( = in5 in19))) (not ( = in5 in20))) (not ( = in5 in21))) (not ( = in5 in22))) (not ( = in5 in23))) (not ( = in5 in24))) (not ( = in6 in7))) (not ( = in6 in8))) (not ( = in6 in9))) (not ( = in6 in10))) (not ( = in6 in11))) (not ( = in6 in12))) (not ( = in6 in13))) (not ( = in6 in14))) (not ( = in6 in15))) (not ( = in6 in16))) (not ( = in6 in17))) (not ( = in6 in18))) (not ( = in6 in19))) (not ( = in6 in20))) (not ( = in6 in21))) (not ( = in6 in22))) (not ( = in6 in23))) (not ( = in6 in24))) (not ( = in7 in8))) (not ( = in7 in9))) (not ( = in7 in10))) (not ( = in7 in11))) (not ( = in7 in12))) (not ( = in7 in13))) (not ( = in7 in14))) (not ( = in7 in15))) (not ( = in7 in16))) (not ( = in7 in17))) (not ( = in7 in18))) (not ( = in7 in19))) (not ( = in7 in20))) (not ( = in7 in21))) (not ( = in7 in22))) (not ( = in7 in23))) (not ( = in7 in24))) (not ( = in8 in9))) (not ( = in8 in10))) (not ( = in8 in11))) (not ( = in8 in12))) (not ( = in8 in13))) (not ( = in8 in14))) (not ( = in8 in15))) (not ( = in8 in16))) (not ( = in8 in17))) (not ( = in8 in18))) (not ( = in8 in19))) (not ( = in8 in20))) (not ( = in8 in21))) (not ( = in8 in22))) (not ( = in8 in23))) (not ( = in8 in24))) (not ( = in9 in10))) (not ( = in9 in11))) (not ( = in9 in12))) (not ( = in9 in13))) (not ( = in9 in14))) (not ( = in9 in15))) (not ( = in9 in16))) (not ( = in9 in17))) (not ( = in9 in18))) (not ( = in9 in19))) (not ( = in9 in20))) (not ( = in9 in21))) (not ( = in9 in22))) (not ( = in9 in23))) (not ( = in9 in24))) (not ( = in10 in11))) (not ( = in10 in12))) (not ( = in10 in13))) (not ( = in10 in14))) (not ( = in10 in15))) (not ( = in10 in16))) (not ( = in10 in17))) (not ( = in10 in18))) (not ( = in10 in19))) (not ( = in10 in20))) (not ( = in10 in21))) (not ( = in10 in22))) (not ( = in10 in23))) (not ( = in10 in24))) (not ( = in11 in12))) (not ( = in11 in13))) (not ( = in11 in14))) (not ( = in11 in15))) (not ( = in11 in16))) (not ( = in11 in17))) (not ( = in11 in18))) (not ( = in11 in19))) (not ( = in11 in20))) (not ( = in11 in21))) (not ( = in11 in22))) (not ( = in11 in23))) (not ( = in11 in24))) (not ( = in12 in13))) (not ( = in12 in14))) (not ( = in12 in15))) (not ( = in12 in16))) (not ( = in12 in17))) (not ( = in12 in18))) (not ( = in12 in19))) (not ( = in12 in20))) (not ( = in12 in21))) (not ( = in12 in22))) (not ( = in12 in23))) (not ( = in12 in24))) (not ( = in13 in14))) (not ( = in13 in15))) (not ( = in13 in16))) (not ( = in13 in17))) (not ( = in13 in18))) (not ( = in13 in19))) (not ( = in13 in20))) (not ( = in13 in21))) (not ( = in13 in22))) (not ( = in13 in23))) (not ( = in13 in24))) (not ( = in14 in15))) (not ( = in14 in16))) (not ( = in14 in17))) (not ( = in14 in18))) (not ( = in14 in19))) (not ( = in14 in20))) (not ( = in14 in21))) (not ( = in14 in22))) (not ( = in14 in23))) (not ( = in14 in24))) (not ( = in15 in16))) (not ( = in15 in17))) (not ( = in15 in18))) (not ( = in15 in19))) (not ( = in15 in20))) (not ( = in15 in21))) (not ( = in15 in22))) (not ( = in15 in23))) (not ( = in15 in24))) (not ( = in16 in17))) (not ( = in16 in18))) (not ( = in16 in19))) (not ( = in16 in20))) (not ( = in16 in21))) (not ( = in16 in22))) (not ( = in16 in23))) (not ( = in16 in24))) (not ( = in17 in18))) (not ( = in17 in19))) (not ( = in17 in20))) (not ( = in17 in21))) (not ( = in17 in22))) (not ( = in17 in23))) (not ( = in17 in24))) (not ( = in18 in19))) (not ( = in18 in20))) (not ( = in18 in21))) (not ( = in18 in22))) (not ( = in18 in23))) (not ( = in18 in24))) (not ( = in19 in20))) (not ( = in19 in21))) (not ( = in19 in22))) (not ( = in19 in23))) (not ( = in19 in24))) (not ( = in20 in21))) (not ( = in20 in22))) (not ( = in20 in23))) (not ( = in20 in24))) (not ( = in21 in22))) (not ( = in21 in23))) (not ( = in21 in24))) (not ( = in22 in23))) (not ( = in22 in24))) (not ( = in23 in24))))

(check-sat)
(get-model)